computational_data/real_data/solutions/iris_trial_002_lex.sol
Optimal - objective value 8.19999900
      0 r_0                         1                     0.9
      1 r_1                         1                     0.9
      2 r_2                         1                0.933333
      3 r_3                         1                     0.9
      4 r_4                         0                0.933333
      5 r_5                         0                0.933333
      6 r_6                         0                0.933333
      7 r_7                         1                     0.9
      8 r_8                         1                0.933333
      9 r_9                         0                0.933333
     10 r_10                        0                0.933333
     11 r_11                        0                0.933333
     12 r_12                        1                     0.9
     13 r_13                        0                0.933333
     14 r_14                        1                     0.9
     15 r_15                        0                0.933333
     16 r_16                        0                0.933333
     17 b_0                         0                     0.9
     18 b_1                         0                     0.9
     19 b_2                         0                0.933333
     20 b_3                         0                     0.9
     21 b_4                         0                0.933333
     22 b_5                         0                0.933333
     23 b_6                         0                0.933333
     24 b_7                         0                     0.9
     25 b_8                         0                0.933333
     26 b_9                         1                0.933333
     27 b_10                        0                0.933333
     28 b_11                        0                0.933333
     29 b_12                        0                     0.9
     30 b_13                        0                0.933333
     31 b_14                        0                     0.9
     32 b_15                        0                0.933333
     33 b_16                        0                0.933333
